Using license file /home/benedond/gurobi.lic
Using gurobi.env file
Set parameter Threads to value 1
Academic license - for non-commercial use only
Changed value of parameter TimeLimit to 300.0
   Prev: inf  Min: 0.0  Max: inf  Default: inf
Gurobi Optimizer version 9.0.1 build v9.0.1rc0 (linux64)
Optimize a model with 2108 rows, 1957 columns and 9439 nonzeros
Model fingerprint: 0xfbcd9d06
Variable types: 60 continuous, 1897 integer (1897 binary)
Coefficient statistics:
  Matrix range     [2e-01, 5e+02]
  Objective range  [7e-03, 3e-01]
  Bounds range     [1e+00, 1e+00]
  RHS range        [1e+00, 1e+03]
Presolve removed 106 rows and 77 columns
Presolve time: 0.05s
Presolved: 2002 rows, 1880 columns, 8965 nonzeros
Variable types: 59 continuous, 1821 integer (1821 binary)

Root relaxation: objective 2.061119e+00, 2005 iterations, 0.06 seconds

    Nodes    |    Current Node    |     Objective Bounds      |     Work
 Expl Unexpl |  Obj  Depth IntInf | Incumbent    BestBd   Gap | It/Node Time

     0     0    2.06112    0  161          -    2.06112      -     -    0s
     0     0    2.20632    0  119          -    2.20632      -     -    0s
     0     0    2.22342    0  109          -    2.22342      -     -    0s
     0     0    2.28215    0  131          -    2.28215      -     -    0s
H    0     0                       3.7392847    2.28215  39.0%     -    0s
H    0     0                       3.6224861    2.28215  37.0%     -    0s
H    0     0                       3.2601528    2.28215  30.0%     -    0s
     0     0    2.29924    0  116    3.26015    2.29924  29.5%     -    0s
     0     0    2.35866    0  151    3.26015    2.35866  27.7%     -    0s
     0     0    2.36769    0  135    3.26015    2.36769  27.4%     -    0s
     0     0    2.38484    0  134    3.26015    2.38484  26.8%     -    0s
     0     0    2.38980    0  137    3.26015    2.38980  26.7%     -    0s
     0     0    2.39086    0  141    3.26015    2.39086  26.7%     -    0s
     0     0    2.39170    0  145    3.26015    2.39170  26.6%     -    0s
     0     0    2.39173    0  147    3.26015    2.39173  26.6%     -    0s
     0     0    2.43594    0  121    3.26015    2.43594  25.3%     -    0s
     0     0    2.44650    0  121    3.26015    2.44650  25.0%     -    0s
     0     0    2.45049    0  134    3.26015    2.45049  24.8%     -    0s
     0     0    2.45197    0  159    3.26015    2.45197  24.8%     -    0s
     0     0    2.45286    0  151    3.26015    2.45286  24.8%     -    0s
     0     0    2.45309    0  151    3.26015    2.45309  24.8%     -    0s
     0     0    2.45314    0  145    3.26015    2.45314  24.8%     -    0s
     0     0    2.47182    0  115    3.26015    2.47182  24.2%     -    0s
     0     0    2.47270    0  134    3.26015    2.47270  24.2%     -    0s
     0     0    2.47294    0  138    3.26015    2.47294  24.1%     -    0s
     0     0    2.47306    0  135    3.26015    2.47306  24.1%     -    0s
     0     0    2.47727    0  136    3.26015    2.47727  24.0%     -    1s
     0     0    2.47837    0  154    3.26015    2.47837  24.0%     -    1s
     0     0    2.47882    0  146    3.26015    2.47882  24.0%     -    1s
     0     0    2.47929    0  154    3.26015    2.47929  24.0%     -    1s
     0     0    2.47932    0  171    3.26015    2.47932  24.0%     -    1s
     0     0    2.48329    0  141    3.26015    2.48329  23.8%     -    1s
     0     0    2.48421    0  160    3.26015    2.48421  23.8%     -    1s
     0     0    2.48448    0  147    3.26015    2.48448  23.8%     -    1s
     0     0    2.48472    0  156    3.26015    2.48472  23.8%     -    1s
     0     0    2.48500    0  126    3.26015    2.48500  23.8%     -    1s
     0     0    2.48501    0  149    3.26015    2.48501  23.8%     -    1s
     0     0    2.48851    0  142    3.26015    2.48851  23.7%     -    1s
     0     0    2.48965    0  159    3.26015    2.48965  23.6%     -    1s
     0     0    2.48973    0  144    3.26015    2.48973  23.6%     -    1s
     0     0    2.49211    0  144    3.26015    2.49211  23.6%     -    1s
     0     0    2.49300    0  158    3.26015    2.49300  23.5%     -    1s
     0     0    2.49359    0  175    3.26015    2.49359  23.5%     -    1s
     0     0    2.49424    0  167    3.26015    2.49424  23.5%     -    1s
     0     0    2.49449    0  154    3.26015    2.49449  23.5%     -    1s
     0     0    2.49454    0  160    3.26015    2.49454  23.5%     -    1s
     0     0    2.49647    0  158    3.26015    2.49647  23.4%     -    1s
     0     0    2.49738    0  163    3.26015    2.49738  23.4%     -    1s
     0     0    2.49830    0  183    3.26015    2.49830  23.4%     -    1s
     0     0    2.49855    0  161    3.26015    2.49855  23.4%     -    1s
     0     0    2.49867    0  167    3.26015    2.49867  23.4%     -    1s
     0     0    2.49911    0  172    3.26015    2.49911  23.3%     -    1s
H    0     0                       3.2038889    2.49911  22.0%     -    1s
     0     0    2.49954    0  155    3.20389    2.49954  22.0%     -    1s
     0     0    2.49959    0  155    3.20389    2.49959  22.0%     -    1s
     0     0    2.50151    0  176    3.20389    2.50151  21.9%     -    1s
     0     0    2.50151    0  175    3.20389    2.50151  21.9%     -    2s
H    0     0                       3.1531826    2.50151  20.7%     -    2s
     0     2    2.50558    0  174    3.15318    2.50558  20.5%     -    2s
H   27    27                       3.0786111    2.50947  18.5%   169    3s
H  134   117                       3.0607084    2.51024  18.0%   126    4s
H  206   167                       3.0326320    2.52180  16.8%   108    4s
   220   182    2.80463   22   66    3.03263    2.52180  16.8%   114    5s
*  378   286              80       2.9678403    2.52879  14.8%   109    6s
   553   394    2.91173   24  128    2.96784    2.55472  13.9%  99.4   10s
H  563   380                       2.9678264    2.57631  13.2%  97.6   10s
   607   411    2.61573   14  154    2.96783    2.61573  11.9%   115   15s
   664   442    2.70163   42  139    2.96783    2.62621  11.5%   131   20s
H  687   425                       2.9678263    2.62621  11.5%   134   20s
H  688   405                       2.9661111    2.62621  11.5%   134   20s
   827   432    2.91475   50   96    2.96611    2.62627  11.5%   146   25s
H  993   417                       2.9619861    2.63619  11.0%   147   28s
H 1048   365                       2.9398542    2.63702  10.3%   141   28s
  1139   406    2.89362   26  167    2.93985    2.66465  9.36%   138   30s
H 1188   293                       2.8715347    2.66757  7.10%   137   30s
  1482   351    2.71983   19  104    2.87153    2.69969  5.98%   133   35s
  1838   480    2.83968   54   53    2.87153    2.71152  5.57%   137   40s
  2131   576    2.79816   41   82    2.87153    2.72512  5.10%   142   45s
H 2291   618                       2.8715347    2.73566  4.73%   141   47s
H 2360   645                       2.8715347    2.73678  4.69%   141   48s
  2504   670    2.84180   54  112    2.87153    2.74297  4.48%   140   50s
  2911   722    2.78960   29  113    2.87153    2.77024  3.53%   137   55s
  3349   791    2.85067   36  112    2.87153    2.79057  2.82%   137   60s
H 3360   770                       2.8677431    2.79104  2.67%   137   60s
  3858   806     cutoff   29         2.86774    2.80525  2.18%   133   65s
  4356   779     cutoff   38         2.86774    2.81636  1.79%   131   70s
  4870   712    2.84058   29   88    2.86774    2.82780  1.39%   127   75s
  5086   653    2.86729   31   49    2.86774    2.83163  1.26%   125   80s
  6095   294     cutoff   17         2.86774    2.85310  0.51%   114   85s
* 6138   195              43       2.8614792    2.85387  0.27%   113   85s

Cutting planes:
  Cover: 56
  Implied bound: 9
  Clique: 11
  MIR: 194
  Flow cover: 360
  GUB cover: 1
  RLT: 13
  Relax-and-lift: 141

Explored 6374 nodes (706971 simplex iterations) in 85.50 seconds
Thread count was 1 (of 4 available processors)

Solution count 10: 2.86148 2.86774 2.87153 ... 3.06071

Optimal solution found (tolerance 1.00e-04)
Best objective 2.861479187260e+00, best bound 2.861212603625e+00, gap 0.0093%
